207,331
436,887
488,672
734,379
829,258
718,169
810,7
926,-75
639,140
918,443
1184,485
1023,517
963,794
762,566
778,476
822,600
778,336
602,909
463,564
339,295
448,173
524,-79
575,352
444,369
521,487
593,420
709,415
521,325
317,142
300,25
453,332
415,448
545,673
838,891
548,474
560,494
698,382
948,542
